%%% Exp_DoseResponse conditions	%%%
%% Produces 1 plate.
%% 2021/03/09: It takes about ?? sec
%% 2021/07/11: It takes > 24h 22m 46s (Bug: UNSAT! Too many controls!
%% 2021/07/12: 514msec

%% Plate dimentions: (this is a 96-well plate)
num_rows = 8; %% height
num_cols = 12; %% width


horizontal_cell_lines = 1;
vertical_cell_lines = 1;

%allow_empty_wells = false;


% New and used!
concentrations_on_different_rows = true;
concentrations_on_different_columns = true;


% New and unused! (Restriction: replicates_on_different_plates /\ replicates_on_same_plate == false)
replicates_on_different_plates = true;
replicates_on_same_plate = false;

size_empty_edge = 1;


%%% Compounds %%%
%compounds = 5; %% number of drugs/compounds
compound_concentrations	 = [4| i in 1..5]; 

compound_names = ["comp\(i)" | i in 1..5];

compound_replicates	 = [1| i in 1..5]; 

compound_concentration_names = [|"a0.3", "a1", "a3", "a5"
|"b0.3", "b1", "b3", "b5"
|"c0.3", "c1", "c3", "c5"
|"d0.3", "d1", "d3", "d5"
|"e0.3", "e1", "e3", "e5"|];


%%% Controls %%%
%num_controls = 4;
control_replicates = [16,8,8,8];
control_concentrations = [1 | i in 1..num_controls];
control_names = ["pos","neg","blank","dmso"];

control_concentration_names =  array2d(1..4, 1..1,["cont\(floor(i/1))-conc\((i mod 1) + 1)" | i in 1..4]);  
  
